w = 12;
h = 12;
n = 8;
m = 15;
rect_size = [|
3, 3|
3, 4|
4, 3|
3, 5|
5, 3|
3, 6|
6, 3|
3, 7|
7, 3|
3, 8|
8, 3|
3, 9|
9, 3|
6, 3|
3, 6|];
rect_offset = [|
0, 0|
0, 0|
0, 0|
0, 0|
0, 0|
0, 0|
0, 0|
0, 0|
0, 0|
0, 0|
0, 0|
0, 0|
0, 0|
0, 0|
0, 0|];
shape = [{1}, {2}, {3}, {4}, {5}, {6}, {7}, {8}, {9}, {10}, {11}, {12}, {13}, {14}, {15}];
shapeind = [{1}, {2, 3}, {4, 5}, {6, 7}, {8, 9}, {10, 11}, {12, 13}, {14, 15}];
ncopy = [1, 1, 1, 1, 1, 1, 1, 1];
c = 8;
